NAME : amz1912.129036_129036.tour
COMMENT : Cost = 129036_129036
COMMENT : Found by LKH-AMZ [Keld Helsgaun] Sun May 11 15:03:05 2025
COMMENT : TW viol.: 0 #: 0
TYPE : TOUR
DIMENSION : 169
TOUR_SECTION
51
143
50
145
109
9
23
156
1
5
49
72
3
90
148
68
167
116
141
64
54
165
159
48
108
107
130
52
45
79
138
140
134
21
22
139
122
34
78
25
56
149
120
103
93
47
84
15
126
85
74
13
2
80
7
150
44
113
75
111
135
57
86
28
29
125
31
157
17
26
16
41
115
162
97
118
83
92
14
36
100
82
60
55
67
94
144
102
71
131
20
133
77
88
136
96
73
166
10
46
132
18
33
81
106
65
98
66
105
147
30
161
19
32
27
69
53
112
39
76
121
4
154
158
163
89
42
155
160
62
164
43
153
104
129
127
11
169
35
123
101
124
6
137
95
119
61
110
128
117
99
63
142
40
168
8
12
24
91
146
37
151
59
58
70
38
87
152
114
-1
EOF
